Global Parameters
ISTART =  0            (Read existing wavefunction, if there)
ISPIN  =  2            (Non-Spin polarised DFT)
# ICHARG =  11         (Non-self-consistent: GGA/LDA band structures)
LREAL  = .FALSE.       (Projection operators: automatic)
ENCUT  =  500        (Cut-off energy for plane wave basis set, in eV)
# PREC   =  Accurate   (Precision level: Normal or Accurate, set Accurate when perform structure lattice relaxation calculation)
LWAVE  = .FALSE.        (Write WAVECAR or not)
LCHARG = .FALSE.        (Write CHGCAR or not)
ADDGRID= .TRUE.        (Increase grid, helps GGA convergence)
# LVTOT  = .TRUE.      (Write total electrostatic potential into LOCPOT or not)
# LVHAR  = .TRUE.      (Write ionic + Hartree electrostatic potential into LOCPOT or not)
# NELECT =             (No. of electrons: charged cells, be careful)
# LPLANE = .TRUE.      (Real space distribution, supercells)
NWRITE = 0           (Medium-level output)
# KPAR   = 2           (Divides k-grid into separate groups)
# NGXF    = 300        (FFT grid mesh density for nice charge/potential plots)
# NGYF    = 300        (FFT grid mesh density for nice charge/potential plots)
# NGZF    = 300        (FFT grid mesh density for nice charge/potential plots)

NCORE = 16
# IBRION = 2
# ISIF = 0
# EDIFFG = -2E-2
# NSW = 500
ISMEAR =  1            (gaussian smearing method)
SIGMA  =  0.2         (please check the width of the smearing)
EDIFF  =  1E-04        (SCF energy convergence, in eV)
NELM   =  200          (Max. no. of electronic SCF steps)
GGA = BF
LUSE_VDW = .TRUE.
Zab_VDW = -1.8867
LBEEFENS = .TRUE.
